(set-info :smt-lib-version 2.6)
(set-logic UF)
(set-info :source |Benchmarks from the paper: "Extending Sledgehammer with SMT Solvers" by Jasmin Blanchette, Sascha Bohme, and Lawrence C. Paulson, CADE 2011.  Translated to SMT2 by Andrew Reynolds and Morgan Deters.|)
(set-info :category "industrial")
(set-info :status unknown)
(declare-sort S1 0)
(declare-sort S2 0)
(declare-sort S3 0)
(declare-sort S4 0)
(declare-sort S5 0)
(declare-sort S6 0)
(declare-sort S7 0)
(declare-sort S8 0)
(declare-sort S9 0)
(declare-sort S10 0)
(declare-sort S11 0)
(declare-sort S12 0)
(declare-sort S13 0)
(declare-sort S14 0)
(declare-sort S15 0)
(declare-sort S16 0)
(declare-sort S17 0)
(declare-sort S18 0)
(declare-sort S19 0)
(declare-sort S20 0)
(declare-fun f1 () S1)
(declare-fun f2 () S1)
(declare-fun f3 (S3 S4) S1)
(declare-fun f4 (S5 S5 S2) S3)
(declare-fun f5 () S5)
(declare-fun f6 () S5)
(declare-fun f7 (S6 S2) S2)
(declare-fun f8 (S7 S8) S6)
(declare-fun f9 () S7)
(declare-fun f10 (S9 S5) S8)
(declare-fun f11 () S9)
(declare-fun f12 (S10 S2) S6)
(declare-fun f13 () S10)
(declare-fun f14 (S11 S5) S2)
(declare-fun f15 () S11)
(declare-fun f16 () S5)
(declare-fun f17 (S12 S8) S2)
(declare-fun f18 () S12)
(declare-fun f19 () S8)
(declare-fun f20 (S13) S4)
(declare-fun f21 () S13)
(declare-fun f22 (S2 S14) S1)
(declare-fun f23 (S14) S14)
(declare-fun f24 (S15 S13) S14)
(declare-fun f25 (S5) S15)
(declare-fun f26 () S5)
(declare-fun f27 (S5 S16) S1)
(declare-fun f28 () S16)
(declare-fun f29 (S13 S17) S1)
(declare-fun f30 () S17)
(declare-fun f31 (S14) S14)
(declare-fun f32 (S5 S2) S3)
(declare-fun f33 (S8 S18) S1)
(declare-fun f34 (S9 S16) S18)
(declare-fun f35 () S16)
(declare-fun f36 (S5 S2) S3)
(declare-fun f37 (S5) S14)
(declare-fun f38 () S12)
(declare-fun f39 (S19 S13) S13)
(declare-fun f40 (S20 S3) S19)
(declare-fun f41 () S20)
(assert (not (= f1 f2)))
(assert (not (exists ((?v0 S2)) (let ((?v_0 (f12 f13 (f17 f18 f19)))) (= (f3 (f4 f5 f6 (f7 (f8 f9 (f10 f11 f6)) (f7 (f12 f13 ?v0) (f7 (f12 f13 (f14 f15 f16)) (f7 ?v_0 (f7 (f8 f9 (f10 f11 f16)) (f7 ?v_0 (f14 f15 f6)))))))) (f20 f21)) f1)))))
(assert (= (f22 (f7 (f8 f9 (f10 f11 f16)) (f7 (f12 f13 (f17 f18 f19)) (f14 f15 f6))) (f23 (f24 (f25 f26) f21))) f1))
(assert (not (= (f27 f16 f28) f1)))
(assert (= (f29 f21 f30) f1))
(assert (forall ((?v0 S13) (?v1 S5)) (=> (= (f29 ?v0 f30) f1) (= (= (f22 (f17 f18 (f10 f11 ?v1)) (f23 (f24 (f25 f26) ?v0))) f1) (= (f27 ?v1 f28) f1)))))
(assert (forall ((?v0 S5) (?v1 S2) (?v2 S5) (?v3 S8) (?v4 S2) (?v5 S13)) (let ((?v_0 (f7 (f8 f9 (f10 f11 ?v0)) (f7 (f12 f13 ?v1) (f7 (f12 f13 (f14 f15 ?v2)) (f7 (f12 f13 (f17 f18 ?v3)) ?v4)))))) (=> (= (f22 ?v_0 (f23 (f24 (f25 f26) ?v5))) f1) (=> (not (= (f27 ?v0 f28) f1)) (=> (= (f29 ?v5 f30) f1) (= (f3 (f4 f5 ?v0 ?v_0) (f20 ?v5)) f1)))))))
(assert (forall ((?v0 S5) (?v1 S2) (?v2 S2) (?v3 S2) (?v4 S2) (?v5 S13)) (=> (= (f3 (f4 f5 ?v0 (f7 (f8 f9 (f10 f11 ?v0)) (f7 (f12 f13 ?v1) (f7 (f12 f13 ?v2) (f7 (f12 f13 ?v3) ?v4))))) (f20 ?v5)) f1) (= (f22 ?v3 (f23 (f24 (f25 f26) ?v5))) f1))))
(assert (forall ((?v0 S5) (?v1 S2) (?v2 S5) (?v3 S8) (?v4 S2) (?v5 S13) (?v6 S5) (?v7 S2) (?v8 S5) (?v9 S2)) (let ((?v_0 (f12 f13 (f17 f18 ?v3))) (?v_1 (f20 ?v5))) (=> (= (f3 (f4 f5 ?v0 (f7 (f8 f9 (f10 f11 ?v0)) (f7 (f12 f13 ?v1) (f7 (f12 f13 (f14 f15 ?v2)) (f7 ?v_0 ?v4))))) ?v_1) f1) (=> (= (f3 (f4 f5 ?v6 (f7 (f8 f9 (f10 f11 ?v6)) (f7 (f12 f13 ?v7) (f7 (f12 f13 (f14 f15 ?v8)) (f7 ?v_0 ?v9))))) ?v_1) f1) (=> (= (f29 ?v5 f30) f1) (and (= ?v0 ?v6) (and (= ?v1 ?v7) (and (= ?v2 ?v8) (= ?v4 ?v9))))))))))
(assert (forall ((?v0 S5) (?v1 S5) (?v2 S8) (?v3 S2) (?v4 S2) (?v5 S2) (?v6 S2) (?v7 S13)) (=> (= (f3 (f4 ?v0 ?v1 (f7 (f8 f9 ?v2) (f7 (f12 f13 ?v3) (f7 (f12 f13 ?v4) (f7 (f12 f13 ?v5) ?v6))))) (f20 ?v7)) f1) (= (f22 ?v6 (f23 (f24 (f25 f26) ?v7))) f1))))
(assert (forall ((?v0 S5) (?v1 S13)) (=> (= (f27 ?v0 f28) f1) (= (f22 (f17 f18 (f10 f11 ?v0)) (f24 (f25 f26) ?v1)) f1))))
(assert (forall ((?v0 S5) (?v1 S13)) (= (f22 (f17 f18 (f10 f11 ?v0)) (f24 (f25 ?v0) ?v1)) f1)))
(assert (= (f27 f26 f28) f1))
(assert (forall ((?v0 S5) (?v1 S5) (?v2 S2) (?v3 S13)) (=> (= (f3 (f4 ?v0 ?v1 ?v2) (f20 ?v3)) f1) (=> (=> (= (f22 ?v2 (f23 (f24 (f25 f26) ?v3))) f1) false) false))))
(assert (forall ((?v0 S2) (?v1 S2) (?v2 S14)) (let ((?v_0 (f23 ?v2))) (=> (= (f22 (f7 (f12 f13 ?v0) ?v1) ?v_0) f1) (=> (=> (= (f22 ?v0 ?v_0) f1) (=> (= (f22 ?v1 ?v_0) f1) false)) false)))))
(assert (forall ((?v0 S5) (?v1 S5) (?v2 S2) (?v3 S13)) (=> (= (f3 (f4 ?v0 ?v1 ?v2) (f20 ?v3)) f1) (= (f22 ?v2 (f24 (f25 f26) ?v3)) f1))))
(assert (forall ((?v0 S5) (?v1 S5) (?v2 S2) (?v3 S13)) (=> (= (f3 (f4 ?v0 ?v1 ?v2) (f20 ?v3)) f1) (= (f22 ?v2 (f24 (f25 ?v0) ?v3)) f1))))
(assert (forall ((?v0 S2) (?v1 S14)) (=> (= (f22 ?v0 ?v1) f1) (= (f22 ?v0 (f23 ?v1)) f1))))
(assert (not (= (f27 f5 f28) f1)))
(assert (not (= f26 f5)))
(assert (not (= f5 f26)))
(assert (forall ((?v0 S5) (?v1 S8) (?v2 S2)) (not (= (f14 f15 ?v0) (f7 (f8 f9 ?v1) ?v2)))))
(assert (forall ((?v0 S2) (?v1 S2) (?v2 S2) (?v3 S2)) (= (= (f7 (f12 f13 ?v0) ?v1) (f7 (f12 f13 ?v2) ?v3)) (and (= ?v0 ?v2) (= ?v1 ?v3)))))
(assert (forall ((?v0 S8) (?v1 S8)) (= (= (f17 f18 ?v0) (f17 f18 ?v1)) (= ?v0 ?v1))))
(assert (forall ((?v0 S2) (?v1 S14)) (let ((?v_0 (f23 ?v1))) (=> (= (f22 ?v0 (f23 ?v_0)) f1) (= (f22 ?v0 ?v_0) f1)))))
(assert (forall ((?v0 S14)) (let ((?v_0 (f23 ?v0))) (= (f23 ?v_0) ?v_0))))
(assert (forall ((?v0 S8) (?v1 S2) (?v2 S8) (?v3 S2)) (= (= (f7 (f8 f9 ?v0) ?v1) (f7 (f8 f9 ?v2) ?v3)) (and (= ?v0 ?v2) (= ?v1 ?v3)))))
(assert (forall ((?v0 S5) (?v1 S5)) (= (= (f14 f15 ?v0) (f14 f15 ?v1)) (= ?v0 ?v1))))
(assert (forall ((?v0 S5) (?v1 S5) (?v2 S2) (?v3 S5) (?v4 S5) (?v5 S2)) (= (= (f4 ?v0 ?v1 ?v2) (f4 ?v3 ?v4 ?v5)) (and (= ?v0 ?v3) (and (= ?v1 ?v4) (= ?v2 ?v5))))))
(assert (forall ((?v0 S5) (?v1 S5)) (= (= (f10 f11 ?v0) (f10 f11 ?v1)) (= ?v0 ?v1))))
(assert (forall ((?v0 S2) (?v1 S2) (?v2 S8)) (not (= (f7 (f12 f13 ?v0) ?v1) (f17 f18 ?v2)))))
(assert (forall ((?v0 S8) (?v1 S2) (?v2 S2)) (not (= (f17 f18 ?v0) (f7 (f12 f13 ?v1) ?v2)))))
(assert (forall ((?v0 S2) (?v1 S2) (?v2 S14)) (let ((?v_0 (f23 ?v2))) (=> (= (f22 (f7 (f12 f13 ?v0) ?v1) ?v_0) f1) (= (f22 ?v1 ?v_0) f1)))))
(assert (forall ((?v0 S2) (?v1 S2) (?v2 S14)) (let ((?v_0 (f23 ?v2))) (=> (= (f22 (f7 (f12 f13 ?v0) ?v1) ?v_0) f1) (= (f22 ?v0 ?v_0) f1)))))
(assert (forall ((?v0 S2) (?v1 S2) (?v2 S8) (?v3 S2)) (not (= (f7 (f12 f13 ?v0) ?v1) (f7 (f8 f9 ?v2) ?v3)))))
(assert (forall ((?v0 S8) (?v1 S2) (?v2 S2) (?v3 S2)) (not (= (f7 (f8 f9 ?v0) ?v1) (f7 (f12 f13 ?v2) ?v3)))))
(assert (forall ((?v0 S8) (?v1 S2) (?v2 S8)) (not (= (f7 (f8 f9 ?v0) ?v1) (f17 f18 ?v2)))))
(assert (forall ((?v0 S8) (?v1 S8) (?v2 S2)) (not (= (f17 f18 ?v0) (f7 (f8 f9 ?v1) ?v2)))))
(assert (forall ((?v0 S8) (?v1 S2) (?v2 S14)) (let ((?v_0 (f23 ?v2))) (=> (= (f22 (f7 (f8 f9 ?v0) ?v1) ?v_0) f1) (=> (=> (= (f22 ?v1 ?v_0) f1) false) false)))))
(assert (forall ((?v0 S8) (?v1 S2) (?v2 S14)) (let ((?v_0 (f23 ?v2))) (=> (= (f22 (f7 (f8 f9 ?v0) ?v1) ?v_0) f1) (= (f22 ?v1 ?v_0) f1)))))
(assert (forall ((?v0 S2) (?v1 S2) (?v2 S5)) (not (= (f7 (f12 f13 ?v0) ?v1) (f14 f15 ?v2)))))
(assert (forall ((?v0 S5) (?v1 S2) (?v2 S2)) (not (= (f14 f15 ?v0) (f7 (f12 f13 ?v1) ?v2)))))
(assert (forall ((?v0 S5) (?v1 S8)) (not (= (f14 f15 ?v0) (f17 f18 ?v1)))))
(assert (forall ((?v0 S8) (?v1 S5)) (not (= (f17 f18 ?v0) (f14 f15 ?v1)))))
(assert (forall ((?v0 S8) (?v1 S2) (?v2 S5)) (not (= (f7 (f8 f9 ?v0) ?v1) (f14 f15 ?v2)))))
(assert (forall ((?v0 S13) (?v1 S5)) (=> (= (f29 ?v0 f30) f1) (= (= (f22 (f17 f18 (f10 f11 ?v1)) (f31 (f24 (f25 f26) ?v0))) f1) (= (f27 ?v1 f28) f1)))))
(assert (forall ((?v0 S5) (?v1 S2) (?v2 S5) (?v3 S8) (?v4 S13)) (let ((?v_1 (f17 f18 ?v3))) (let ((?v_0 (f12 f13 ?v_1))) (=> (= (f3 (f4 f5 ?v0 (f7 (f8 f9 (f10 f11 ?v0)) (f7 (f12 f13 ?v1) (f7 (f12 f13 (f14 f15 ?v2)) (f7 ?v_0 (f7 (f8 f9 (f10 f11 ?v2)) (f7 ?v_0 (f14 f15 ?v0)))))))) (f20 ?v4)) f1) (=> (not (= (f27 ?v0 f28) f1)) (=> (not (= (f27 ?v2 f28) f1)) (=> (= (f29 ?v4 f30) f1) (=> (forall ((?v5 S2)) (not (= (f3 (f32 f26 (f7 (f12 f13 ?v1) (f7 (f12 f13 ?v5) ?v_1))) (f20 ?v4)) f1))) (not (= (f22 ?v_1 (f31 (f24 (f25 f26) ?v4))) f1)))))))))))
(assert (forall ((?v0 S5) (?v1 S2) (?v2 S13)) (=> (= (f3 (f32 ?v0 ?v1) (f20 ?v2)) f1) (=> (= (f27 ?v0 f28) f1) (= (f22 ?v1 (f24 (f25 f26) ?v2)) f1)))))
(assert (forall ((?v0 S5) (?v1 S8) (?v2 S2) (?v3 S5) (?v4 S8) (?v5 S2) (?v6 S13)) (let ((?v_0 (f17 f18 ?v4))) (=> (= (f3 (f4 f5 ?v0 (f7 (f8 f9 ?v1) (f7 (f12 f13 ?v2) (f7 (f12 f13 (f14 f15 ?v3)) (f7 (f12 f13 ?v_0) ?v5))))) (f20 ?v6)) f1) (=> (forall ((?v7 S2)) (not (= (f3 (f32 f26 (f7 (f12 f13 ?v2) (f7 (f12 f13 ?v7) ?v_0))) (f20 ?v6)) f1))) (=> (not (= (f27 ?v0 f28) f1)) (=> (not (= (f27 ?v3 f28) f1)) (=> (= (f29 ?v6 f30) f1) (not (= (f22 ?v_0 (f31 (f24 (f25 f26) ?v6))) f1))))))))))
(assert (forall ((?v0 S5) (?v1 S2) (?v2 S13)) (let ((?v_0 (f31 (f24 (f25 f26) ?v2)))) (=> (= (f22 (f7 (f8 f9 (f10 f11 ?v0)) ?v1) ?v_0) f1) (=> (= (f27 ?v0 f28) f1) (= (f22 ?v1 ?v_0) f1))))))
(assert (forall ((?v0 S5) (?v1 S2) (?v2 S5) (?v3 S8) (?v4 S2) (?v5 S13)) (let ((?v_0 (f12 f13 (f17 f18 ?v3)))) (=> (= (f22 (f7 (f8 f9 (f10 f11 ?v0)) (f7 (f12 f13 ?v1) (f7 (f12 f13 (f14 f15 ?v2)) (f7 ?v_0 ?v4)))) (f23 (f24 (f25 f26) ?v5))) f1) (=> (not (= (f27 ?v0 f28) f1)) (=> (= (f29 ?v5 f30) f1) (and (not (= (f33 ?v3 (f34 f11 f35)) f1)) (= ?v4 (f7 (f8 f9 (f10 f11 ?v2)) (f7 ?v_0 (f14 f15 ?v0)))))))))))
(assert (forall ((?v0 S5) (?v1 S2) (?v2 S13)) (=> (not (= ?v0 f26)) (=> (= (f3 (f36 ?v0 ?v1) (f20 ?v2)) f1) (= (f22 ?v1 (f24 (f25 ?v0) ?v2)) f1)))))
(assert (forall ((?v0 S5)) (= (f22 (f17 f18 (f10 f11 ?v0)) (f37 ?v0)) f1)))
(assert (forall ((?v0 S5) (?v1 S8) (?v2 S2) (?v3 S5) (?v4 S8) (?v5 S2) (?v6 S13)) (let ((?v_0 (f12 f13 (f17 f18 ?v4)))) (=> (= (f3 (f4 f5 ?v0 (f7 (f8 f9 ?v1) (f7 (f12 f13 ?v2) (f7 (f12 f13 (f14 f15 ?v3)) (f7 ?v_0 ?v5))))) (f20 ?v6)) f1) (=> (= (f29 ?v6 f30) f1) (and (not (= (f33 ?v4 (f34 f11 f35)) f1)) (and (= ?v5 (f7 (f8 f9 (f10 f11 ?v3)) (f7 ?v_0 (f14 f15 ?v0)))) (= ?v1 (f10 f11 ?v0)))))))))
(assert (forall ((?v0 S13) (?v1 S5) (?v2 S5) (?v3 S8) (?v4 S5) (?v5 S8) (?v6 S2)) (let ((?v_1 (f17 f38 ?v3)) (?v_0 (f12 f13 (f14 f15 ?v4))) (?v_2 (f20 ?v0))) (=> (= (f29 ?v0 f30) f1) (=> (not (= ?v1 f5)) (=> (= (f3 (f4 ?v2 ?v1 (f7 (f8 f9 (f10 f11 ?v1)) (f7 (f12 f13 ?v_1) (f7 ?v_0 (f7 (f12 f13 (f17 f18 ?v5)) ?v6))))) ?v_2) f1) (=> (= (f3 (f4 ?v1 f5 (f7 (f12 f13 (f14 f15 ?v1)) (f7 ?v_0 ?v_1))) ?v_2) f1) (= (f29 (f39 (f40 f41 (f4 ?v1 ?v4 ?v6)) ?v0) f30) f1))))))))
(assert (forall ((?v0 S2) (?v1 S14)) (=> (= (f22 ?v0 ?v1) f1) (= (f22 ?v0 (f31 ?v1)) f1))))
(assert (forall ((?v0 S2) (?v1 S2) (?v2 S14)) (let ((?v_0 (f31 ?v2))) (=> (= (f22 (f7 (f12 f13 ?v0) ?v1) ?v_0) f1) (=> (=> (= (f22 ?v0 ?v_0) f1) (=> (= (f22 ?v1 ?v_0) f1) false)) false)))))
(assert (forall ((?v0 S5) (?v1 S2) (?v2 S5) (?v3 S2)) (not (= (f36 ?v0 ?v1) (f32 ?v2 ?v3)))))
(assert (forall ((?v0 S5) (?v1 S2) (?v2 S5) (?v3 S2)) (not (= (f32 ?v0 ?v1) (f36 ?v2 ?v3)))))
(assert (forall ((?v0 S14)) (let ((?v_0 (f31 ?v0))) (= (f31 ?v_0) ?v_0))))
(assert (forall ((?v0 S8) (?v1 S8)) (= (= (f17 f38 ?v0) (f17 f38 ?v1)) (= ?v0 ?v1))))
(assert (forall ((?v0 S5) (?v1 S2) (?v2 S5) (?v3 S2)) (= (= (f36 ?v0 ?v1) (f36 ?v2 ?v3)) (and (= ?v0 ?v2) (= ?v1 ?v3)))))
(assert (forall ((?v0 S5) (?v1 S2) (?v2 S5) (?v3 S2)) (= (= (f32 ?v0 ?v1) (f32 ?v2 ?v3)) (and (= ?v0 ?v2) (= ?v1 ?v3)))))
(assert (forall ((?v0 S2) (?v1 S14)) (let ((?v_0 (f31 ?v1))) (=> (= (f22 ?v0 (f31 ?v_0)) f1) (= (f22 ?v0 ?v_0) f1)))))
(assert (forall ((?v0 S8) (?v1 S5)) (not (= (f22 (f17 f38 ?v0) (f23 (f37 ?v1))) f1))))
(assert (forall ((?v0 S2) (?v1 S5) (?v2 S2) (?v3 S13)) (let ((?v_0 (f25 f26))) (=> (not (= (f22 ?v0 (f31 (f24 ?v_0 (f39 (f40 f41 (f32 ?v1 ?v2)) ?v3)))) f1)) (not (= (f22 ?v0 (f31 (f24 ?v_0 ?v3))) f1))))))
(assert (forall ((?v0 S2) (?v1 S5) (?v2 S2) (?v3 S13)) (let ((?v_0 (f25 f26))) (=> (not (= (f22 ?v0 (f31 (f24 ?v_0 (f39 (f40 f41 (f36 ?v1 ?v2)) ?v3)))) f1)) (not (= (f22 ?v0 (f31 (f24 ?v_0 ?v3))) f1))))))
(assert (forall ((?v0 S2) (?v1 S2) (?v2 S14)) (let ((?v_0 (f31 ?v2))) (=> (= (f22 (f7 (f12 f13 ?v0) ?v1) ?v_0) f1) (= (f22 ?v0 ?v_0) f1)))))
(check-sat)
(exit)
